35
4
20 20 20 -36
18 12 12 18 10 9 14 10 14 18 12 10 14 10 13 16 12 14 16 18 18 15 18 14 16 18 15 16 17 18 18 18 18 18 18 
0 4 1 1 1
1 1 1 1 8
1 1 1 8 4
1 1 1 12 4
1 1 1 16 4
1 1 1 19 2
1 1 1 20 2
1 1 8 8 8
1 1 8 12 4
1 1 8 16 2
1 1 8 19 4
1 1 8 20 2
1 1 12 12 8
1 1 12 16 2
1 1 12 19 2
1 1 12 20 4
1 1 16 16 8
1 1 16 19 4
1 1 16 20 4
1 1 19 19 8
1 1 19 20 4
1 1 20 20 8
1 4 1 1 1
1 4 2 2 1
2 1 1 1 4
2 1 1 2 2
2 1 1 8 2
2 1 1 12 2
2 1 1 16 2
2 1 2 8 2
2 1 2 12 2
2 1 2 16 2
2 1 2 19 2
2 1 2 20 2
2 1 8 9 4
2 1 8 13 2
2 1 8 16 2
2 1 9 12 2
2 1 9 19 4
2 1 9 20 2
2 1 12 13 4
2 1 12 16 2
2 1 13 19 2
2 1 13 20 4
2 1 16 17 4
2 1 17 19 4
2 1 17 20 4
2 2 14 14 8
2 2 14 19 4
2 2 19 19 8
2 4 1 1 1
2 4 3 3 1
3 1 1 2 4
3 1 1 17 2
3 1 2 8 4
3 1 2 12 4
3 1 5 16 2
3 1 5 19 2
3 1 5 20 2
3 1 8 17 2
3 1 9 9 8
3 1 9 13 4
3 1 12 17 2
3 1 13 13 8
3 1 16 17 2
3 1 16 18 2
3 1 17 19 2
3 1 17 20 2
3 1 18 19 2
3 1 18 20 2
3 2 3 14 4
3 2 3 19 2
3 2 8 14 2
3 2 8 19 4
3 2 14 16 4
3 2 14 20 2
3 2 16 19 2
3 2 19 20 4
3 4 1 1 1
3 4 4 4 1
4 1 1 5 4
4 1 1 18 2
4 1 5 8 4
4 1 5 12 4
4 1 5 16 2
4 1 5 19 2
4 1 5 20 2
4 1 8 18 2
4 1 12 18 2
4 1 16 18 4
4 1 18 19 4
4 1 18 20 4
4 2 3 3 8
4 2 3 8 4
4 2 3 16 4
4 2 3 20 2
4 2 8 8 8
4 2 8 16 2
4 2 8 20 4
4 2 16 16 8
4 2 16 20 4
4 2 20 20 8
4 4 1 1 1
4 4 5 5 1
5 1 1 2 4
5 1 1 9 2
5 1 1 13 2
5 1 2 16 4
5 1 3 8 2
5 1 3 12 2
5 1 3 19 2
5 1 3 20 2
5 1 8 9 2
5 1 8 10 2
5 1 8 13 2
5 1 9 16 2
5 1 9 19 2
5 1 10 12 2
5 1 10 19 2
5 1 10 20 2
5 1 12 14 4
5 1 13 16 2
5 1 13 19 2
5 1 14 20 4
5 1 17 17 8
5 2 11 14 4
5 2 11 19 4
5 2 14 15 4
5 2 15 19 4
5 3 14 14 8
5 4 1 1 1
5 4 6 6 1
6 1 1 2 2
6 1 2 2 4
6 1 2 9 2
6 1 2 13 2
6 1 2 17 2
6 1 3 8 2
6 1 3 12 2
6 1 5 16 2
6 1 6 19 2
6 1 6 20 2
6 1 9 9 4
6 1 9 10 2
6 1 9 13 2
6 1 9 17 2
6 1 10 13 2
6 1 13 14 4
6 1 13 17 2
6 1 17 17 4
6 1 17 18 2
6 2 3 14 2
6 2 4 14 2
6 2 4 19 2
6 2 8 14 2
6 2 9 19 4
6 2 11 14 2
6 2 11 19 2
6 2 12 14 2
6 2 12 19 2
6 2 14 17 2
6 2 15 16 2
6 2 15 20 2
6 2 17 19 2
6 3 14 16 4
6 4 1 1 1
6 4 7 7 1
7 1 1 5 2
7 1 2 5 2
7 1 2 18 2
7 1 5 9 2
7 1 5 13 2
7 1 5 16 2
7 1 6 8 2
7 1 6 12 2
7 1 6 19 2
7 1 6 20 2
7 1 9 18 2
7 1 13 18 2
7 1 17 18 4
7 2 3 3 4
7 2 3 4 2
7 2 3 8 2
7 2 3 16 2
7 2 4 8 2
7 2 4 16 2
7 2 4 20 2
7 2 8 9 4
7 2 8 16 2
7 2 9 20 4
7 2 12 14 4
7 2 12 19 4
7 2 16 17 4
7 2 17 20 4
7 3 16 16 8
7 4 1 1 1
7 4 8 8 1
8 1 2 2 8
8 1 3 9 4
8 1 3 13 4
8 1 5 17 4
8 1 9 10 4
8 1 10 13 4
8 1 14 14 8
8 1 17 18 4
8 2 1 14 2
8 2 1 19 2
8 2 3 11 2
8 2 3 15 2
8 2 6 14 2
8 2 6 19 2
8 2 8 11 2
8 2 8 15 2
8 2 11 16 2
8 2 11 20 2
8 2 13 14 2
8 2 13 19 2
8 2 14 18 2
8 2 15 16 2
8 2 15 20 2
8 2 18 19 2
8 3 3 14 4
8 3 14 18 4
8 4 1 1 1
8 4 9 9 1
9 1 2 5 4
9 1 5 17 2
9 1 5 18 2
9 1 6 9 4
9 1 6 13 4
9 1 17 18 2
9 1 18 18 4
9 2 1 14 2
9 2 1 19 2
9 2 3 4 4
9 2 3 12 2
9 2 3 17 2
9 2 4 8 4
9 2 6 16 2
9 2 6 20 2
9 2 8 12 2
9 2 8 17 2
9 2 9 9 8
9 2 12 16 2
9 2 12 20 2
9 2 13 14 2
9 2 13 19 2
9 2 16 17 2
9 2 16 18 2
9 2 17 20 2
9 2 18 20 2
9 3 3 16 4
9 3 16 18 4
9 4 1 1 1
9 4 10 10 1
10 1 5 5 8
10 1 5 18 4
10 1 18 18 8
10 2 1 3 4
10 2 1 8 4
10 2 1 16 2
10 2 1 20 2
10 2 3 6 4
10 2 3 13 2
10 2 3 18 2
10 2 6 8 4
10 2 6 16 2
10 2 6 20 2
10 2 8 13 2
10 2 8 18 2
10 2 13 16 4
10 2 13 20 4
10 2 16 18 4
10 2 18 20 4
10 3 3 3 8
10 3 3 18 4
10 3 18 18 8
10 4 1 1 1
10 4 11 11 1
11 1 1 3 4
11 1 1 10 2
11 1 1 14 2
11 1 3 8 2
11 1 3 16 4
11 1 3 19 2
11 1 4 12 2
11 1 4 20 2
11 1 8 10 4
11 1 8 14 2
11 1 10 16 2
11 1 10 19 4
11 1 11 12 2
11 1 11 20 2
11 1 12 14 2
11 1 12 15 2
11 1 14 16 2
11 1 14 19 2
11 1 14 20 2
11 1 15 20 2
11 2 11 11 8
11 2 11 15 4
11 2 15 15 8
11 3 6 14 4
11 3 10 14 4
11 3 14 15 4
11 4 1 1 1
11 4 12 12 1
12 1 1 3 2
12 1 2 3 2
12 1 2 10 2
12 1 2 14 2
12 1 3 8 2
12 1 3 17 2
12 1 4 12 2
12 1 6 16 2
12 1 6 19 2
12 1 7 20 2
12 1 9 10 4
12 1 9 14 2
12 1 10 17 2
12 1 11 13 2
12 1 13 14 2
12 1 13 15 2
12 1 14 17 2
12 2 4 14 4
12 2 5 19 2
12 2 9 14 2
12 2 9 19 2
12 2 10 19 2
12 2 11 11 4
12 2 11 12 2
12 2 11 15 2
12 2 12 15 2
12 2 15 17 4
12 3 6 14 2
12 3 7 14 2
12 3 10 16 2
12 3 11 14 2
12 3 14 17 2
12 3 15 16 2
12 4 1 1 1
12 4 13 13 1
13 1 1 6 2
13 1 3 5 2
13 1 3 18 2
13 1 5 10 2
13 1 5 14 2
13 1 6 8 2
13 1 6 16 2
13 1 6 19 2
13 1 7 12 2
13 1 7 20 2
13 1 10 18 2
13 1 14 18 2
13 2 3 4 4
13 2 3 9 2
13 2 4 16 4
13 2 5 8 2
13 2 5 20 2
13 2 8 9 2
13 2 8 10 2
13 2 9 16 2
13 2 9 20 2
13 2 10 20 2
13 2 11 12 4
13 2 12 15 4
13 2 17 17 8
13 3 7 14 4
13 3 11 16 4
13 3 16 17 4
13 4 1 1 1
13 4 14 14 1
14 1 2 3 4
14 1 3 9 2
14 1 3 10 2
14 1 3 14 2
14 1 4 13 2
14 1 6 17 4
14 1 9 10 2
14 1 10 10 4
14 1 10 14 2
14 1 11 13 2
14 1 14 14 4
14 1 14 15 2
14 2 1 14 2
14 2 2 19 2
14 2 4 11 2
14 2 4 15 2
14 2 6 14 2
14 2 7 19 2
14 2 9 11 2
14 2 9 15 2
14 2 11 12 4
14 2 11 17 2
14 2 13 15 2
14 2 15 17 2
14 2 15 18 2
14 3 3 14 2
14 3 4 14 2
14 3 6 16 2
14 3 8 14 2
14 3 10 16 2
14 3 12 14 2
14 3 14 19 2
14 3 15 18 2
14 4 1 1 1
14 4 15 15 1
15 1 2 6 2
15 1 3 5 2
15 1 6 9 2
15 1 6 10 2
15 1 6 14 2
15 1 6 17 2
15 1 6 18 2
15 1 7 13 2
15 2 1 14 2
15 2 2 19 2
15 2 3 4 2
15 2 4 4 4
15 2 4 9 2
15 2 4 12 2
15 2 4 17 2
15 2 5 8 2
15 2 6 16 2
15 2 7 20 2
15 2 9 9 4
15 2 9 10 2
15 2 9 12 2
15 2 9 17 2
15 2 11 12 2
15 2 12 12 4
15 2 12 17 2
15 2 13 15 2
15 2 17 17 4
15 2 17 18 2
15 3 3 16 2
15 3 4 16 2
15 3 7 16 2
15 3 8 14 2
15 3 11 16 2
15 3 12 16 2
15 3 16 19 2
15 3 17 18 2
15 4 1 1 1
15 4 16 16 1
16 1 5 6 4
16 1 6 18 4
16 2 1 3 2
16 2 1 4 2
16 2 1 9 2
16 2 1 16 2
16 2 2 8 2
16 2 2 20 2
16 2 3 6 2
16 2 4 6 2
16 2 4 13 2
16 2 4 18 2
16 2 6 9 2
16 2 6 16 2
16 2 7 8 2
16 2 7 20 2
16 2 9 13 2
16 2 9 18 2
16 2 12 12 8
16 2 13 17 4
16 2 17 18 4
16 3 3 3 4
16 3 3 4 2
16 3 3 18 2
16 3 4 18 2
16 3 8 16 4
16 3 12 16 4
16 3 18 19 4
16 4 1 1 1
16 4 17 17 1
17 1 3 3 8
17 1 3 10 4
17 1 4 14 4
17 1 10 10 8
17 1 11 14 4
17 1 14 15 4
17 2 1 11 4
17 2 1 15 2
17 2 6 11 2
17 2 6 15 4
17 2 11 13 4
17 2 11 18 2
17 2 13 15 2
17 2 15 18 4
17 3 1 14 2
17 3 2 14 2
17 3 3 6 2
17 3 3 10 2
17 3 3 15 2
17 3 5 14 2
17 3 6 18 2
17 3 9 14 2
17 3 10 18 2
17 3 13 14 2
17 3 14 20 2
17 3 15 18 2
17 4 1 1 1
17 4 18 18 1
18 1 3 6 4
18 1 6 10 4
18 1 7 14 4
18 2 1 11 2
18 2 1 12 2
18 2 1 15 2
18 2 4 4 8
18 2 5 9 4
18 2 6 12 2
18 2 6 17 4
18 2 9 10 4
18 2 11 13 2
18 2 12 13 2
18 2 12 18 2
18 2 13 15 2
18 2 17 18 4
18 3 1 14 2
18 3 2 16 2
18 3 3 7 2
18 3 3 11 2
18 3 3 17 2
18 3 5 16 2
18 3 7 18 2
18 3 9 14 2
18 3 11 18 2
18 3 13 16 2
18 3 16 20 2
18 3 17 18 2
18 4 1 1 1
18 4 19 19 1
19 1 6 6 8
19 2 1 4 4
19 2 1 12 4
19 2 1 17 2
19 2 2 9 4
19 2 4 6 4
19 2 6 13 2
19 2 6 17 2
19 2 6 18 2
19 2 7 9 4
19 2 12 13 4
19 2 13 17 2
19 2 13 18 2
19 2 17 18 2
19 2 18 18 4
19 3 1 16 2
19 3 2 16 2
19 3 3 4 4
19 3 3 8 2
19 3 3 12 2
19 3 3 19 2
19 3 5 18 2
19 3 8 18 2
19 3 9 16 2
19 3 12 18 2
19 3 13 16 2
19 3 18 19 2
19 3 18 20 2
19 4 1 1 1
19 4 20 20 1
20 2 1 1 8
20 2 1 6 4
20 2 1 13 4
20 2 1 18 2
20 2 6 6 8
20 2 6 13 2
20 2 6 18 4
20 2 13 13 8
20 2 13 18 4
20 2 18 18 8
20 3 1 3 4
20 3 1 18 2
20 3 2 3 4
20 3 2 18 2
20 3 3 5 4
20 3 3 9 2
20 3 3 13 2
20 3 3 20 2
20 3 5 18 2
20 3 9 18 4
20 3 13 18 4
20 3 18 20 4
20 4 1 1 1
20 4 21 21 1
21 1 1 4 4
21 1 1 11 2
21 1 1 15 2
21 1 4 8 2
21 1 4 12 2
21 1 4 16 4
21 1 4 19 2
21 1 4 20 2
21 1 8 11 4
21 1 8 15 2
21 1 11 12 2
21 1 11 16 2
21 1 11 19 4
21 1 11 20 2
21 1 12 15 4
21 1 15 16 2
21 1 15 19 2
21 1 15 20 4
21 3 6 6 8
21 3 6 10 4
21 3 6 15 4
21 3 10 10 8
21 3 10 15 4
21 3 15 15 8
21 4 1 1 1
21 4 22 22 1
22 1 1 4 2
22 1 2 4 2
22 1 2 11 2
22 1 2 15 2
22 1 4 8 2
22 1 4 12 2
22 1 4 17 2
22 1 7 16 2
22 1 7 19 2
22 1 7 20 2
22 1 9 11 4
22 1 9 15 2
22 1 11 13 2
22 1 11 17 2
22 1 13 15 4
22 1 15 17 2
22 2 5 14 4
22 2 5 19 2
22 2 10 14 2
22 2 10 19 4
22 3 6 6 4
22 3 6 7 2
22 3 6 10 2
22 3 6 15 2
22 3 7 10 2
22 3 7 15 2
22 3 10 11 4
22 3 10 17 2
22 3 11 15 2
22 3 15 17 4
22 4 1 1 1
22 4 23 23 1
23 1 1 7 2
23 1 4 5 2
23 1 4 18 2
23 1 5 11 2
23 1 5 15 2
23 1 7 8 2
23 1 7 12 2
23 1 7 16 2
23 1 7 19 2
23 1 7 20 2
23 1 11 18 2
23 1 15 18 2
23 2 3 5 4
23 2 3 10 2
23 2 5 8 2
23 2 5 16 4
23 2 5 20 2
23 2 8 10 4
23 2 10 16 2
23 2 10 20 4
23 3 6 7 4
23 3 7 10 4
23 3 7 15 4
23 3 11 11 8
23 3 11 17 4
23 3 17 17 8
23 4 1 1 1
23 4 24 24 1
24 1 2 4 4
24 1 3 11 2
24 1 3 15 2
24 1 4 9 2
24 1 4 13 2
24 1 7 17 4
24 1 9 11 2
24 1 10 11 2
24 1 10 15 2
24 1 11 13 2
24 1 14 15 4
24 2 2 14 2
24 2 2 19 2
24 2 5 11 2
24 2 5 15 2
24 2 7 14 2
24 2 7 19 2
24 2 10 11 2
24 2 10 15 2
24 3 4 14 4
24 3 6 7 4
24 3 6 11 2
24 3 6 17 2
24 3 8 10 2
24 3 8 15 2
24 3 10 11 2
24 3 10 12 2
24 3 10 17 2
24 3 12 15 2
24 3 15 19 4
24 4 1 1 1
24 4 25 25 1
25 1 2 7 2
25 1 4 5 2
25 1 6 11 2
25 1 6 15 2
25 1 7 9 2
25 1 7 13 2
25 1 7 17 2
25 1 7 18 2
25 2 2 14 2
25 2 2 19 2
25 2 3 5 2
25 2 4 5 2
25 2 4 10 2
25 2 5 8 2
25 2 5 12 2
25 2 5 17 2
25 2 7 16 2
25 2 7 20 2
25 2 9 10 4
25 2 10 12 2
25 2 10 17 2
25 3 4 16 4
25 3 6 7 2
25 3 7 7 4
25 3 7 11 2
25 3 7 17 2
25 3 8 10 2
25 3 8 15 2
25 3 11 11 4
25 3 11 12 2
25 3 11 17 2
25 3 12 17 2
25 3 17 19 4
25 4 1 1 1
25 4 26 26 1
26 1 5 7 4
26 1 7 18 4
26 2 1 5 2
26 2 1 10 2
26 2 2 3 2
26 2 2 8 2
26 2 2 16 2
26 2 2 20 2
26 2 3 7 2
26 2 5 6 2
26 2 5 13 2
26 2 5 18 2
26 2 6 10 2
26 2 7 8 2
26 2 7 16 2
26 2 7 20 2
26 2 10 13 2
26 2 10 18 2
26 3 3 4 4
26 3 4 18 4
26 3 7 7 8
26 3 8 11 4
26 3 8 17 4
26 3 11 12 4
26 3 12 17 4
26 3 19 19 8
26 4 1 1 1
26 4 27 27 1
27 1 3 4 4
27 1 3 11 2
27 1 4 10 2
27 1 4 14 2
27 1 4 15 2
27 1 10 11 4
27 1 11 14 2
27 1 11 15 2
27 1 14 15 2
27 1 15 15 4
27 2 2 11 4
27 2 2 15 2
27 2 7 11 2
27 2 7 15 4
27 3 1 14 2
27 3 2 14 2
27 3 4 6 2
27 3 4 10 2
27 3 4 15 2
27 3 5 14 2
27 3 6 8 4
27 3 6 12 2
27 3 6 19 2
27 3 8 10 2
27 3 9 15 2
27 3 10 12 4
27 3 10 19 2
27 3 13 15 2
27 3 15 19 2
27 3 15 20 2
27 4 1 1 1
27 4 28 28 1
28 1 3 7 2
28 1 4 6 2
28 1 6 11 2
28 1 7 10 2
28 1 7 14 2
28 1 7 15 2
28 2 2 11 2
28 2 2 12 2
28 2 2 15 2
28 2 4 5 4
28 2 5 9 2
28 2 5 10 2
28 2 7 12 2
28 2 7 17 4
28 2 9 10 2
28 2 10 10 4
28 3 1 14 2
28 3 2 16 2
28 3 4 7 2
28 3 4 11 2
28 3 4 17 2
28 3 5 16 2
28 3 6 8 2
28 3 7 8 2
28 3 7 12 2
28 3 7 19 2
28 3 8 10 2
28 3 9 15 2
28 3 11 12 4
28 3 11 19 2
28 3 13 17 2
28 3 17 19 2
28 3 17 20 2
28 4 1 1 1
28 4 29 29 1
29 1 6 7 4
29 2 1 5 2
29 2 2 4 2
29 2 2 9 2
29 2 2 10 2
29 2 2 12 4
29 2 2 17 2
29 2 4 7 2
29 2 5 6 2
29 2 7 9 2
29 2 7 10 2
29 2 7 13 2
29 2 7 17 2
29 2 7 18 2
29 3 1 16 2
29 3 2 16 2
29 3 3 4 2
29 3 4 4 4
29 3 4 8 2
29 3 4 12 2
29 3 4 19 2
29 3 5 18 2
29 3 7 8 4
29 3 8 11 2
29 3 8 12 2
29 3 8 19 2
29 3 9 17 2
29 3 11 12 2
29 3 12 12 4
29 3 12 19 2
29 3 13 17 2
29 3 19 19 4
29 3 19 20 2
29 4 1 1 1
29 4 30 30 1
30 2 1 2 4
30 2 1 7 2
30 2 2 6 2
30 2 2 13 4
30 2 2 18 2
30 2 6 7 4
30 2 7 13 2
30 2 7 18 4
30 3 1 3 2
30 3 1 4 2
30 3 1 18 2
30 3 2 3 2
30 3 2 4 2
30 3 2 18 2
30 3 3 5 2
30 3 4 5 2
30 3 4 9 2
30 3 4 13 2
30 3 4 20 2
30 3 5 18 2
30 3 8 8 8
30 3 8 12 4
30 3 9 19 4
30 3 12 12 8
30 3 13 19 4
30 3 19 20 4
30 4 1 1 1
30 4 31 31 1
31 1 4 4 8
31 1 4 11 4
31 1 4 15 4
31 1 11 11 8
31 1 11 15 4
31 1 15 15 8
31 3 1 6 4
31 3 1 10 2
31 3 1 15 2
31 3 2 6 2
31 3 2 10 4
31 3 2 15 2
31 3 5 6 2
31 3 5 10 2
31 3 5 15 4
31 3 6 9 4
31 3 6 13 2
31 3 6 20 2
31 3 9 10 2
31 3 9 15 2
31 3 10 13 4
31 3 10 20 2
31 3 13 15 2
31 3 15 20 4
31 4 1 1 1
31 4 32 32 1
32 1 4 7 4
32 1 7 11 4
32 1 7 15 4
32 2 5 5 8
32 2 5 10 4
32 2 10 10 8
32 3 1 6 2
32 3 1 7 2
32 3 1 10 2
32 3 1 15 2
32 3 2 7 2
32 3 2 11 4
32 3 2 17 2
32 3 5 7 2
32 3 5 11 2
32 3 5 17 4
32 3 6 9 2
32 3 7 9 2
32 3 7 13 2
32 3 7 20 2
32 3 9 10 2
32 3 9 15 2
32 3 11 13 4
32 3 11 20 2
32 3 13 17 2
32 3 17 20 4
32 4 1 1 1
32 4 33 33 1
33 1 7 7 8
33 2 2 5 4
33 2 2 10 4
33 2 5 7 4
33 2 7 10 4
33 3 1 7 4
33 3 1 11 2
33 3 1 17 2
33 3 2 8 2
33 3 2 11 2
33 3 2 12 2
33 3 2 17 2
33 3 4 4 8
33 3 5 8 2
33 3 5 12 2
33 3 5 19 4
33 3 7 9 4
33 3 8 13 2
33 3 8 20 2
33 3 9 11 2
33 3 9 17 2
33 3 11 13 2
33 3 12 13 2
33 3 12 20 2
33 3 13 17 2
33 3 19 20 4
33 4 1 1 1
33 4 34 34 1
34 2 2 2 8
34 2 2 7 4
34 2 7 7 8
34 3 1 4 4
34 3 1 8 4
34 3 1 12 2
34 3 1 19 2
34 3 2 4 4
34 3 2 8 2
34 3 2 12 4
34 3 2 19 2
34 3 4 5 4
34 3 5 9 2
34 3 5 13 2
34 3 5 19 2
34 3 5 20 2
34 3 8 9 4
34 3 8 13 2
34 3 9 12 2
34 3 9 19 2
34 3 9 20 2
34 3 12 13 4
34 3 13 19 2
34 3 13 20 2
34 3 19 20 2
34 3 20 20 4
34 4 1 1 1
34 4 35 35 1
35 3 1 1 8
35 3 1 2 4
35 3 1 5 4
35 3 1 9 4
35 3 1 13 2
35 3 1 20 2
35 3 2 2 8
35 3 2 5 4
35 3 2 9 2
35 3 2 13 4
35 3 2 20 2
35 3 5 5 8
35 3 5 9 2
35 3 5 13 2
35 3 5 20 4
35 3 9 9 8
35 3 9 13 4
35 3 9 20 4
35 3 13 13 8
35 3 13 20 4
35 3 20 20 8
35 4 1 1 1
35 4 36 36 1
